% Generated FlatZinc statistics:
%%%mzn-stat: paths=0
%%%mzn-stat: flatIntVars=36
%%%mzn-stat: flatIntConstraints=230
%%%mzn-stat: method="minimize"
%%%mzn-stat: flatTime=0.0422501
%%%mzn-stat-end

yCoor = [29, 21, 29, 1, 50, 1, 1, 26, 25, 6, 6, 46, 33, 35, 5, 32, 27, 6, 11, 8, 42, 36, 4, 42, 48, 9, 11, 37, 16, 25];
S = [9, 11, 25, 29];
D = 50;
objective = 124;
----------
%%%mzn-stat: initTime=0.00224
%%%mzn-stat: solveTime=1199.95
%%%mzn-stat: solutions=48
%%%mzn-stat: variables=36
%%%mzn-stat: propagators=231
%%%mzn-stat: propagations=5771397347
%%%mzn-stat: nodes=210691439
%%%mzn-stat: failures=105345544
%%%mzn-stat: restarts=0
%%%mzn-stat: peakDepth=45
%%%mzn-stat-end
%%%mzn-stat: nSolutions=1
%%%mzn-stat-end
